c Generated on Thu Mar 24 15:36:07 2016

c This file is generated by SoluFinder
p cnf 211 592
1 46 0
-1 -46 0
2 47 0
-2 -47 0
4 48 0
-4 -48 0
6 49 0
-6 -49 0
8 50 0
-8 -50 0
10 51 0
-10 -51 0
12 52 0
-12 -52 0
14 53 0
-14 -53 0
16 54 0
-16 -54 0
18 55 0
-18 -55 0
20 56 0
-20 -56 0
22 57 0
-22 -57 0
24 58 0
-24 -58 0
26 59 0
-26 -59 0
28 60 0
-28 -60 0
30 61 0
-30 -61 0
32 62 0
-32 -62 0
34 63 0
-34 -63 0
-46 -2 -64 0
46 64 0
2 64 0
3 47 65 0
-3 -65 0
-47 -65 0
5 47 66 0
-5 -66 0
-47 -66 0
-48 -6 -67 0
48 67 0
6 67 0
-50 -10 -68 0
50 68 0
10 68 0
-52 -14 -69 0
52 69 0
14 69 0
-54 -18 -70 0
54 70 0
18 70 0
-56 -22 -71 0
56 71 0
22 71 0
-58 -26 -72 0
58 72 0
26 72 0
-60 -30 -73 0
60 73 0
30 73 0
-62 -34 -74 0
62 74 0
34 74 0
7 49 75 0
-7 -75 0
-49 -75 0
9 49 76 0
-9 -76 0
-49 -76 0
11 51 77 0
-11 -77 0
-51 -77 0
13 51 78 0
-13 -78 0
-51 -78 0
15 53 79 0
-15 -79 0
-53 -79 0
17 53 80 0
-17 -80 0
-53 -80 0
19 55 81 0
-19 -81 0
-55 -81 0
21 55 82 0
-21 -82 0
-55 -82 0
23 57 83 0
-23 -83 0
-57 -83 0
25 57 84 0
-25 -84 0
-57 -84 0
27 59 85 0
-27 -85 0
-59 -85 0
29 59 86 0
-29 -86 0
-59 -86 0
31 61 87 0
-31 -87 0
-61 -87 0
33 61 88 0
-33 -88 0
-61 -88 0
35 63 89 0
-35 -89 0
-63 -89 0
36 63 90 0
-36 -90 0
-63 -90 0
-64 -67 -68 -69 -70 -71 -72 -73 -74 91 0
64 -91 0
67 -91 0
68 -91 0
69 -91 0
70 -91 0
71 -91 0
72 -91 0
73 -91 0
74 -91 0
91 92 0
-91 -92 0
91 93 0
-91 -93 0
91 39 0
-91 -39 0
-92 -64 -94 0
92 64 -94 0
92 -64 94 0
-92 64 94 0
-92 -67 -95 0
92 67 -95 0
92 -67 95 0
-92 67 95 0
-92 -68 -96 0
92 68 -96 0
92 -68 96 0
-92 68 96 0
-92 -69 -97 0
92 69 -97 0
92 -69 97 0
-92 69 97 0
-92 -70 -98 0
92 70 -98 0
92 -70 98 0
-92 70 98 0
-92 -71 -99 0
92 71 -99 0
92 -71 99 0
-92 71 99 0
-1 -93 -100 0
1 100 0
93 100 0
-92 -72 -101 0
92 72 -101 0
92 -72 101 0
-92 72 101 0
-93 -4 -102 0
93 102 0
4 102 0
-92 -73 -103 0
92 73 -103 0
92 -73 103 0
-92 73 103 0
-93 -8 -104 0
93 104 0
8 104 0
-92 -74 -105 0
92 74 -105 0
92 -74 105 0
-92 74 105 0
-93 -12 -106 0
93 106 0
12 106 0
-93 -16 -107 0
93 107 0
16 107 0
-93 -20 -108 0
93 108 0
20 108 0
-93 -24 -109 0
93 109 0
24 109 0
-93 -28 -110 0
93 110 0
28 110 0
-93 -32 -111 0
93 111 0
32 111 0
-94 -65 -112 0
94 112 0
65 112 0
-94 -66 -113 0
94 113 0
66 113 0
-95 -75 -114 0
95 114 0
75 114 0
-96 -77 -115 0
96 115 0
77 115 0
-97 -79 -116 0
97 116 0
79 116 0
-98 -81 -117 0
98 117 0
81 117 0
-99 -83 -118 0
99 118 0
83 118 0
-101 -85 -119 0
101 119 0
85 119 0
-103 -87 -120 0
103 120 0
87 120 0
-105 -89 -121 0
105 121 0
89 121 0
-95 -76 -122 0
95 122 0
76 122 0
-96 -78 -123 0
96 123 0
78 123 0
-97 -80 -124 0
97 124 0
80 124 0
-98 -82 -125 0
98 125 0
82 125 0
-99 -84 -126 0
99 126 0
84 126 0
-101 -86 -127 0
101 127 0
86 127 0
-103 -88 -128 0
103 128 0
88 128 0
-105 -90 -129 0
105 129 0
90 129 0
-112 -114 -115 -116 -117 -118 -119 -120 -121 130 0
112 -130 0
114 -130 0
115 -130 0
116 -130 0
117 -130 0
118 -130 0
119 -130 0
120 -130 0
121 -130 0
113 131 0
-113 -131 0
122 132 0
-122 -132 0
123 133 0
-123 -133 0
124 134 0
-124 -134 0
125 135 0
-125 -135 0
126 136 0
-126 -136 0
127 137 0
-127 -137 0
128 138 0
-128 -138 0
129 139 0
-129 -139 0
130 140 0
-130 -140 0
130 141 0
-130 -141 0
130 40 0
-130 -40 0
-140 -112 -142 0
140 112 -142 0
140 -112 142 0
-140 112 142 0
-140 -114 -143 0
140 114 -143 0
140 -114 143 0
-140 114 143 0
-140 -115 -144 0
140 115 -144 0
140 -115 144 0
-140 115 144 0
-140 -116 -145 0
140 116 -145 0
140 -116 145 0
-140 116 145 0
-3 -141 -146 0
3 146 0
141 146 0
-117 -140 -199 0
117 140 -199 0
117 -140 199 0
-117 140 199 0
-199 -37 -200 0
199 200 0
37 200 0
-117 -140 201 0
117 -201 0
140 -201 0
37 202 0
-37 -202 0
38 203 0
-38 -203 0
-203 -202 -204 0
203 204 0
202 204 0
204 201 205 0
-204 -205 0
-201 -205 0
140 206 0
-140 -206 0
117 207 0
-117 -207 0
-207 -206 -208 0
207 208 0
206 208 0
-38 -202 -209 0
38 209 0
202 209 0
209 208 210 0
-209 -210 0
-208 -210 0
210 205 211 0
-210 -211 0
-205 -211 0
-211 -200 -147 0
211 147 0
200 147 0
-141 -7 -148 0
141 148 0
7 148 0
-140 -118 -149 0
140 118 -149 0
140 -118 149 0
-140 118 149 0
-141 -11 -150 0
141 150 0
11 150 0
-140 -119 -151 0
140 119 -151 0
140 -119 151 0
-140 119 151 0
-141 -15 -152 0
141 152 0
15 152 0
-140 -120 -153 0
140 120 -153 0
140 -120 153 0
-140 120 153 0
-141 -19 -154 0
141 154 0
19 154 0
-140 -121 -155 0
140 121 -155 0
140 -121 155 0
-140 121 155 0
-141 -23 -156 0
141 156 0
23 156 0
-141 -27 -157 0
141 157 0
27 157 0
-141 -31 -158 0
141 158 0
31 158 0
-141 -35 -159 0
141 159 0
35 159 0
-142 -131 -160 0
142 160 0
131 160 0
-143 -132 -161 0
143 161 0
132 161 0
-144 -133 -162 0
144 162 0
133 162 0
-145 -134 -163 0
145 163 0
134 163 0
-147 -135 -164 0
147 164 0
135 164 0
-149 -136 -165 0
149 165 0
136 165 0
-151 -137 -166 0
151 166 0
137 166 0
-153 -138 -167 0
153 167 0
138 167 0
-155 -139 -168 0
155 168 0
139 168 0
-160 -161 -162 -163 -164 -165 -166 -167 -168 169 0
160 -169 0
161 -169 0
162 -169 0
163 -169 0
164 -169 0
165 -169 0
166 -169 0
167 -169 0
168 -169 0
169 170 0
-169 -170 0
169 41 0
-169 -41 0
-5 -170 -171 0
5 171 0
170 171 0
-170 -9 -172 0
170 172 0
9 172 0
-170 -13 -173 0
170 173 0
13 173 0
-170 -17 -174 0
170 174 0
17 174 0
-170 -21 -175 0
170 175 0
21 175 0
-170 -25 -176 0
170 176 0
25 176 0
-170 -29 -177 0
170 177 0
29 177 0
-170 -33 -178 0
170 178 0
33 178 0
-170 -36 -179 0
170 179 0
36 179 0
-2 -100 -146 -171 -180 0
2 180 0
100 180 0
146 180 0
171 180 0
-102 -148 -172 -6 -181 0
102 181 0
148 181 0
172 181 0
6 181 0
-104 -150 -173 -10 -182 0
104 182 0
150 182 0
173 182 0
10 182 0
-106 -152 -174 -14 -183 0
106 183 0
152 183 0
174 183 0
14 183 0
-107 -154 -175 -18 -184 0
107 184 0
154 184 0
175 184 0
18 184 0
-108 -156 -176 -22 -185 0
108 185 0
156 185 0
176 185 0
22 185 0
-109 -157 -177 -26 -186 0
109 186 0
157 186 0
177 186 0
26 186 0
-110 -158 -178 -30 -187 0
110 187 0
158 187 0
178 187 0
30 187 0
-111 -159 -179 -34 -188 0
111 188 0
159 188 0
179 188 0
34 188 0
180 189 0
-180 -189 0
-181 -182 -183 -184 -185 -186 -187 -188 190 0
181 -190 0
182 -190 0
183 -190 0
184 -190 0
185 -190 0
186 -190 0
187 -190 0
188 -190 0
183 191 0
-183 -191 0
185 192 0
-185 -192 0
186 193 0
-186 -193 0
187 194 0
-187 -194 0
189 190 42 0
-189 -42 0
-190 -42 0
-182 -191 -195 0
182 195 0
191 195 0
-182 -183 -192 -184 -196 0
182 196 0
183 196 0
192 196 0
184 196 0
-184 -183 -193 -197 0
184 197 0
183 197 0
193 197 0
-182 -183 -186 -194 -198 0
182 198 0
183 198 0
186 198 0
194 198 0
-181 -182 -195 -184 -43 0
181 43 0
182 43 0
195 43 0
184 43 0
-181 -182 -196 -197 -44 0
181 44 0
182 44 0
196 44 0
197 44 0
-181 -195 -196 -198 -45 0
181 45 0
195 45 0
196 45 0
198 45 0
-1 0
2 0
3 0
-4 0
5 0
6 0
7 0
8 0
9 0
10 0
11 0
-12 0
-13 0
14 0
15 0
-16 0
17 0
18 0
19 0
-20 0
-21 0
22 0
23 0
-24 0
25 0
26 0
27 0
-28 0
29 0
30 0
31 0
-32 0
33 0
34 0
35 0
36 0
39 0
-40 0
41 0
42 0
43 0
-44 0
-45 0
